/* Objective function */
max: +C1 +3 C2 +2 C3 +2 C4 +C5 +2 C6 +C7 +C8 +3 C9 +C10 +4 C11 +3 C12 +4 C13 +2 C14 +C15 +4 C16 +4 C17 +C18
 +C19 +3 C20 +2 C21 +C22 +2 C23 +2 C24 +C25 +C26 +3 C27 +C28 +2 C29 +4 C30 +2 C31 +2 C32 +3 C33 +3 C34
 +4 C35 +3 C36 +C37 +3 C38 +2 C39 +2 C40 +C41 +2 C42 +C43 +C44 +3 C45 +C46 +4 C47 +3 C48 +4 C49 +2 C50
 +C51 +4 C52 +4 C53 +C54 +C55 +3 C56 +2 C57 +C58 +2 C59 +2 C60 +C61 +C62 +3 C63 +C64 +2 C65 +4 C66 +2 C67
 +2 C68 +3 C69 +3 C70 +4 C71 +3 C72 +C73 +3 C74 +2 C75 +2 C76 +C77 +2 C78 +C79 +C80 +3 C81 +C82 +4 C83
 +3 C84 +4 C85 +2 C86 +C87 +4 C88 +4 C89 +C90 +C91 +3 C92 +2 C93 +C94 +2 C95 +2 C96 +C97 +C98 +3 C99
 +C100 +2 C101 +4 C102 +2 C103 +2 C104 +3 C105 +3 C106 +4 C107 +3 C108 +C109 +3 C110 +2 C111 +2 C112
 +C113 +2 C114 +C115 +C116 +3 C117 +C118 +4 C119 +3 C120 +4 C121 +2 C122 +C123 +4 C124 +4 C125 +C126
 +C127 +3 C128 +2 C129 +C130 +2 C131 +2 C132 +C133 +C134 +3 C135 +C136 +2 C137 +4 C138 +2 C139 +2 C140
 +3 C141 +3 C142 +4 C143 +3 C144;

/* Constraints */
+C1 +C2 +C3 +C4 +C5 +C6 +C7 +C8 +C9 +C10 +C11 +C12 = 1;
+C13 +C14 +C15 +C16 +C17 +C18 +C19 +C20 +C21 +C22 +C23 +C24 = 1;
+C25 +C26 +C27 +C28 +C29 +C30 +C31 +C32 +C33 +C34 +C35 +C36 = 1;
+C37 +C38 +C39 +C40 +C41 +C42 +C43 +C44 +C45 +C46 +C47 +C48 = 1;
+C49 +C50 +C51 +C52 +C53 +C54 +C55 +C56 +C57 +C58 +C59 +C60 = 1;
+C61 +C62 +C63 +C64 +C65 +C66 +C67 +C68 +C69 +C70 +C71 +C72 = 1;
+C73 +C74 +C75 +C76 +C77 +C78 +C79 +C80 +C81 +C82 +C83 +C84 = 1;
+C85 +C86 +C87 +C88 +C89 +C90 +C91 +C92 +C93 +C94 +C95 +C96 = 1;
+C97 +C98 +C99 +C100 +C101 +C102 +C103 +C104 +C105 +C106 +C107 +C108 = 1;
+C109 +C110 +C111 +C112 +C113 +C114 +C115 +C116 +C117 +C118 +C119 +C120 = 1;
+C121 +C122 +C123 +C124 +C125 +C126 +C127 +C128 +C129 +C130 +C131 +C132 = 1;
+C133 +C134 +C135 +C136 +C137 +C138 +C139 +C140 +C141 +C142 +C143 +C144 = 1;
+C1 +C13 +C25 +C37 +C49 +C61 +C73 +C85 +C97 +C109 +C121 +C133 = 1;
+C2 +C14 +C26 +C38 +C50 +C62 +C74 +C86 +C98 +C110 +C122 +C134 = 1;
+C3 +C15 +C27 +C39 +C51 +C63 +C75 +C87 +C99 +C111 +C123 +C135 = 1;
+C4 +C16 +C28 +C40 +C52 +C64 +C76 +C88 +C100 +C112 +C124 +C136 = 1;
+C5 +C17 +C29 +C41 +C53 +C65 +C77 +C89 +C101 +C113 +C125 +C137 = 1;
+C6 +C18 +C30 +C42 +C54 +C66 +C78 +C90 +C102 +C114 +C126 +C138 = 1;
+C7 +C19 +C31 +C43 +C55 +C67 +C79 +C91 +C103 +C115 +C127 +C139 = 1;
+C8 +C20 +C32 +C44 +C56 +C68 +C80 +C92 +C104 +C116 +C128 +C140 = 1;
+C9 +C21 +C33 +C45 +C57 +C69 +C81 +C93 +C105 +C117 +C129 +C141 = 1;
+C10 +C22 +C34 +C46 +C58 +C70 +C82 +C94 +C106 +C118 +C130 +C142 = 1;
+C11 +C23 +C35 +C47 +C59 +C71 +C83 +C95 +C107 +C119 +C131 +C143 = 1;
+C12 +C24 +C36 +C48 +C60 +C72 +C84 +C96 +C108 +C120 +C132 +C144 = 1;
+C1 +4 C2 +C3 +3 C13 +2 C14 +C15 +2 C25 +C26 +3 C27 +2 C37 +4 C38 +C39 +C49 +4 C50 +2 C51 +2 C61 +C62
 +4 C63 +C73 +C74 +2 C75 +C85 +3 C86 +2 C87 +3 C97 +2 C98 +3 C99 +C109 +C110 +3 C111 +4 C121 +2 C122
 +4 C123 +3 C133 +2 C134 +3 C135 >= 10;
+C4 +4 C5 +C6 +3 C16 +2 C17 +C18 +2 C28 +C29 +3 C30 +2 C40 +4 C41 +C42 +C52 +4 C53 +2 C54 +2 C64 +C65
 +4 C66 +C76 +C77 +2 C78 +C88 +3 C89 +2 C90 +3 C100 +2 C101 +3 C102 +C112 +C113 +3 C114 +4 C124 +2 C125
 +4 C126 +3 C136 +2 C137 +3 C138 >= 10;
+C7 +4 C8 +C9 +3 C19 +2 C20 +C21 +2 C31 +C32 +3 C33 +2 C43 +4 C44 +C45 +C55 +4 C56 +2 C57 +2 C67 +C68
 +4 C69 +C79 +C80 +2 C81 +C91 +3 C92 +2 C93 +3 C103 +2 C104 +3 C105 +C115 +C116 +3 C117 +4 C127 +2 C128
 +4 C129 +3 C139 +2 C140 +3 C141 >= 10;
+C10 +4 C11 +C12 +3 C22 +2 C23 +C24 +2 C34 +C35 +3 C36 +2 C46 +4 C47 +C48 +C58 +4 C59 +2 C60 +2 C70 +C71
 +4 C72 +C82 +C83 +2 C84 +C94 +3 C95 +2 C96 +3 C106 +2 C107 +3 C108 +C118 +C119 +3 C120 +4 C130 +2 C131
 +4 C132 +3 C142 +2 C143 +3 C144 >= 10;

/* Integer definitions */
int C1,C2,C3,C4,C5,C6,C7,C8,C9,C10,C11,C12,C13,C14,C15,C16,C17,C18,C19,C20,C21,C22,C23,C24,C25,C26,C27,C28,C29,C30,C31,C32,C33,C34,C35,C36,C37,C38,C39,C40,C41,C42,C43,C44,C45,C46,C47,C48,C49,C50,C51,C52,C53,C54,C55,C56,C57,C58,C59,C60,C61,C62,C63,C64,C65,C66,C67,C68,C69,C70,C71,C72,C73,C74,C75,C76,C77,C78,C79,C80,C81,C82,C83,C84,C85,C86,C87,C88,C89,C90,C91,C92,C93,C94,C95,C96,C97,C98,C99,C100,C101,C102,C103,C104,C105,C106,C107,C108,C109,C110,C111,C112,C113,C114,C115,C116,C117,C118,C119,C120,C121,C122,C123,C124,C125,C126,C127,C128,C129,C130,C131,C132,C133,C134,C135,C136,C137,C138,C139,C140,C141,C142,C143,C144;
